;; Mutation-Based Equivalence Benchmark
;; Source:     AutomatArk / instance07196.smt2
;; Mutations:  intersect_min_len_5, intersect_max_len_20, literal_char_inc
;; Status:     sat
;;
;; Original regex vs mutated regex
;; Equivalence check: unsat ⟺ L(R1) = L(R2)

(set-info :smt-lib-version 2.6)
(set-info :category "mutation")
(set-info :status sat)
(set-logic QF_S)

(declare-const x String)

;; R1: original
;; R2: mutated (intersect_min_len_5, intersect_max_len_20, literal_char_inc)
(assert
  (str.in_re x
    (re.union (re.inter (re.++ (str.to_re "Days") (re.+ (re.union (str.to_re " ") (str.to_re "\u{9}") (str.to_re "\u{a}") (str.to_re "\u{c}") (str.to_re "\u{d}"))) (str.to_re "HWAE") (re.+ (re.union (str.to_re " ") (str.to_re "\u{9}") (str.to_re "\u{a}") (str.to_re "\u{c}") (str.to_re "\u{d}"))) (str.to_re "Host:Portawww.thecommunicator.net\u{a}")) (re.comp (re.++ (str.to_re "Dayt") (re.+ (re.union (str.to_re " ") (str.to_re "\u{9}") (str.to_re "\u{a}") (str.to_re "\u{c}") (str.to_re "\u{d}"))) (str.to_re "HWAE") (re.inter (re.+ (re.union (str.to_re " ") (str.to_re "\u{9}") (str.to_re "\u{a}") (str.to_re "\u{c}") (str.to_re "\u{d}"))) ((_ re.loop 0 20) re.allchar)) (re.inter (str.to_re "Host:Portawww.thecommunicator.net\u{a}") (re.++ ((_ re.loop 5 5) re.allchar) re.all))))) (re.inter (re.comp (re.++ (str.to_re "Days") (re.+ (re.union (str.to_re " ") (str.to_re "\u{9}") (str.to_re "\u{a}") (str.to_re "\u{c}") (str.to_re "\u{d}"))) (str.to_re "HWAE") (re.+ (re.union (str.to_re " ") (str.to_re "\u{9}") (str.to_re "\u{a}") (str.to_re "\u{c}") (str.to_re "\u{d}"))) (str.to_re "Host:Portawww.thecommunicator.net\u{a}"))) (re.++ (str.to_re "Dayt") (re.+ (re.union (str.to_re " ") (str.to_re "\u{9}") (str.to_re "\u{a}") (str.to_re "\u{c}") (str.to_re "\u{d}"))) (str.to_re "HWAE") (re.inter (re.+ (re.union (str.to_re " ") (str.to_re "\u{9}") (str.to_re "\u{a}") (str.to_re "\u{c}") (str.to_re "\u{d}"))) ((_ re.loop 0 20) re.allchar)) (re.inter (str.to_re "Host:Portawww.thecommunicator.net\u{a}") (re.++ ((_ re.loop 5 5) re.allchar) re.all)))))))

(check-sat)
(exit)
